100 500 200 500 10 100
84 318
15 208
66 390
42 220
31 218
85 453
53 385
19 368
65 422
91 395
56 234
13 326
11 327
42 215
29 230
46 372
22 489
88 457
75 485
31 401
64 447
91 205
49 239
41 477
27 355
66 478
50 354
37 285
53 472
94 371
50 360
37 248
61 372
94 424
98 380
85 206
84 377
84 305
91 283
52 326
99 401
43 276
94 356
53 485
93 411
17 227
93 296
59 367
22 479
42 221
30 314
33 383
72 489
53 304
31 468
87 459
30 483
85 372
17 344
77 415
91 409
96 223
45 467
53 370
97 380
66 252
82 368
10 382
58 270
33 326
66 365
25 354
56 267
79 435
54 330
26 313
56 240
98 442
66 477
47 350
15 453
58 298
71 485
57 375
29 414
61 240
70 233
87 376
92 369
42 358
37 409
61 386
32 257
36 302
25 388
29 338
55 253
33 359
90 313
43 241
